Data path: /scratch/opt/lxu/CFLG/benchmarks/tree_A
Instance: treeA.100.10
Result path: /scratch/opt/lxu/CFLG/results/tree_A
Solver: Gurobi
Time limit: 7200
Formulation: LEFPAI
Cover: Large
julia --project=. src/main.jl /scratch/opt/lxu/CFLG/benchmarks/tree_A treeA.100.10 /scratch/opt/lxu/CFLG/results/tree_A Gurobi 7200 LEFPAI Large
The latest version of Julia in the `release` channel is 1.11.6+0.x64.linux.gnu. You currently have `1.11.4+0.x64.linux.gnu` installed. Run:

  juliaup update

in your terminal shell to install Julia 1.11.6+0.x64.linux.gnu and update the `release` channel to that version.
/scratch/opt/lxu/CFLG/benchmarks/tree_A Gurobi 7200.0 /scratch/opt/lxu/CFLG/results/tree_A treeA.100.10 LEFPAI Large
/scratch/opt/lxu/CFLG/benchmarks/tree_A/treeA.100.10

 read graph
data loaded

problem_graph/original graph: node: 100/100 edge: 109/109 dlt: 3.1508736886036277 break_avg_len: 1.5754368443018139 break_max_len: 1.9976246780422156Vbar/V, Ebar/E(51, 100, 60, 109)
Set parameter TokenServer to value "solice01.zib.de"
Set parameter Threads to value 1
Set parameter OutputFlag to value 1
Gurobi Optimizer version 12.0.1 build v12.0.1rc0 (linux64 - "Debian GNU/Linux 12 (bookworm)")

CPU model: Intel(R) Xeon(R) Gold 5222 CPU @ 3.80GHz, instruction set [SSE2|AVX|AVX2|AVX512]
Thread count: 8 physical cores, 16 logical processors, using up to 1 threads

Non-default parameters:
Threads  1

Optimize a model with 161 rows, 255 columns and 425 nonzeros
Model fingerprint: 0x41c25474
Coefficient statistics:
  Matrix range     [1e+00, 1e+00]
  Objective range  [1e+00, 1e+00]
  Bounds range     [1e+00, 1e+00]
  RHS range        [1e+00, 1e+00]
Presolve removed 84 rows and 101 columns
Presolve time: 0.00s
Presolved: 77 rows, 154 columns, 240 nonzeros

Iteration    Objective       Primal Inf.    Dual Inf.      Time
       0    8.5000000e+01   4.000000e+01   0.000000e+00      0s
      30    5.1000000e+01   0.000000e+00   0.000000e+00      0s

Solved in 30 iterations and 0.00 seconds (0.00 work units)
Optimal objective  5.100000000e+01

User-callback calls 109, time in user-callback 0.00 sec
elapsed CPU time: 1.038689 seconds
Set parameter TokenServer to value "solice01.zib.de"
Set parameter Threads to value 1
Set parameter OutputFlag to value 1
Set parameter MIPGap to value 0.0001
Set parameter TimeLimit to value 7198.961311

 more cuts: false 3.1508736886036277 false
is_attach:trueformulation:LEFPAI0 85 76

 model loaded

Gurobi Optimizer version 12.0.1 build v12.0.1rc0 (linux64 - "Debian GNU/Linux 12 (bookworm)")

CPU model: Intel(R) Xeon(R) Gold 5222 CPU @ 3.80GHz, instruction set [SSE2|AVX|AVX2|AVX512]
Thread count: 8 physical cores, 16 logical processors, using up to 1 threads

Non-default parameters:
TimeLimit  7198.961311
Threads  1

Optimize a model with 1634 rows, 1284 columns and 4243 nonzeros
Model fingerprint: 0x5300583e
Model has 868 simple general constraints
  868 INDICATOR
Variable types: 246 continuous, 1038 integer (1038 binary)
Coefficient statistics:
  Matrix range     [1e-01, 3e+00]
  Objective range  [1e+00, 1e+00]
  Bounds range     [1e-01, 3e+00]
  RHS range        [1e-01, 4e+00]
  GenCon rhs range [3e-03, 3e+00]
  GenCon coe range [1e+00, 1e+00]
Presolve removed 172 rows and 496 columns
Presolve time: 0.06s
Presolved: 1462 rows, 788 columns, 7208 nonzeros
Variable types: 128 continuous, 660 integer (660 binary)
Found heuristic solution: objective 47.0000000
Found heuristic solution: objective 46.0000000

Root relaxation: objective 1.861721e+01, 704 iterations, 0.01 seconds (0.01 work units)

    Nodes    |    Current Node    |     Objective Bounds      |     Work
 Expl Unexpl |  Obj  Depth IntInf | Incumbent    BestBd   Gap | It/Node Time

     0     0   18.61721    0   70   46.00000   18.61721  59.5%     -    0s
H    0     0                      42.0000000   18.61721  55.7%     -    0s
H    0     0                      23.0000000   18.61721  19.1%     -    0s
H    0     0                      22.0000000   18.61721  15.4%     -    0s
     0     0   20.00000    0   47   22.00000   20.00000  9.09%     -    0s
     0     0   20.00000    0   60   22.00000   20.00000  9.09%     -    0s
     0     0   20.00000    0   52   22.00000   20.00000  9.09%     -    0s
     0     0   20.01856    0   23   22.00000   20.01856  9.01%     -    0s
     0     0   20.02191    0   89   22.00000   20.02191  8.99%     -    0s
     0     0   20.02191    0   88   22.00000   20.02191  8.99%     -    0s
     0     0   20.12500    0   84   22.00000   20.12500  8.52%     -    0s
H    0     0                      21.0000000   20.12500  4.17%     -    0s
     0     0   20.12500    0   84   21.00000   20.12500  4.17%     -    0s

Cutting planes:
  Gomory: 1
  Cover: 6
  Implied bound: 9
  MIR: 14
  RLT: 4
  Relax-and-lift: 1

Explored 1 nodes (2415 simplex iterations) in 0.20 seconds (0.16 work units)
Thread count was 1 (of 16 available processors)

Solution count 6: 21 22 23 ... 47

Optimal solution found (tolerance 1.00e-04)
Warning: max constraint violation (3.8921e-06) exceeds tolerance
Warning: max general constraint violation (3.8921e-06) exceeds tolerance
Best objective 2.100000000000e+01, best bound 2.100000000000e+01, gap 0.0000%

User-callback calls 1272, time in user-callback 0.00 sec

 sepatime0 0 0
21.0
Stat(MathOptInterface.OPTIMAL, 21.0, 21.0, 0.0, 0.0, 1.038689, 0.1988968849182129, 1, Main.CFLG.LEFPAI, "", #undef)
